experiment/data/hgs-res/Vrp-Set-CMT-n101/Vrp-Set-CMT-n101-hgs/1.hgs1.vrp
NAME : 1
COMMENT : CVRP Instance
TYPE : CVRP
DIMENSION : 101
EDGE_WEIGHT_TYPE : EUC_2D
CAPACITY : 200
NODE_COORD_SECTION
1	40.0	50.0
2	45.0	68.0
3	45.0	70.0
4	42.0	66.0
5	42.0	68.0
6	42.0	65.0
7	40.0	69.0
8	40.0	66.0
9	38.0	68.0
10	38.0	70.0
11	35.0	66.0
12	35.0	69.0
13	25.0	85.0
14	22.0	75.0
15	22.0	85.0
16	20.0	80.0
17	20.0	85.0
18	18.0	75.0
19	15.0	75.0
20	15.0	80.0
21	30.0	50.0
22	30.0	52.0
23	28.0	52.0
24	28.0	55.0
25	25.0	50.0
26	25.0	52.0
27	25.0	55.0
28	23.0	52.0
29	23.0	55.0
30	20.0	50.0
31	20.0	55.0
32	10.0	35.0
33	10.0	40.0
34	8.0	40.0
35	8.0	45.0
36	5.0	35.0
37	5.0	45.0
38	2.0	40.0
39	0.0	40.0
40	0.0	45.0
41	35.0	30.0
42	35.0	32.0
43	33.0	32.0
44	33.0	35.0
45	32.0	30.0
46	30.0	30.0
47	30.0	32.0
48	30.0	35.0
49	28.0	30.0
50	28.0	35.0
51	26.0	32.0
52	25.0	30.0
53	25.0	35.0
54	44.0	5.0
55	42.0	10.0
56	42.0	15.0
57	40.0	5.0
58	40.0	15.0
59	38.0	5.0
60	38.0	15.0
61	35.0	5.0
62	50.0	30.0
63	50.0	35.0
64	50.0	40.0
65	48.0	30.0
66	48.0	40.0
67	47.0	35.0
68	47.0	40.0
69	45.0	30.0
70	45.0	35.0
71	95.0	30.0
72	95.0	35.0
73	53.0	30.0
74	92.0	30.0
75	53.0	35.0
76	45.0	65.0
77	90.0	35.0
78	88.0	30.0
79	88.0	35.0
80	87.0	30.0
81	85.0	25.0
82	85.0	35.0
83	75.0	55.0
84	72.0	55.0
85	70.0	58.0
86	68.0	60.0
87	66.0	55.0
88	65.0	55.0
89	65.0	60.0
90	63.0	58.0
91	60.0	55.0
92	60.0	60.0
93	67.0	85.0
94	65.0	85.0
95	65.0	82.0
96	62.0	80.0
97	60.0	80.0
98	60.0	85.0
99	58.0	75.0
100	55.0	80.0
101	55.0	85.0
DEMAND_SECTION
1	0
2	10
3	30
4	10
5	10
6	10
7	20
8	20
9	20
10	10
11	10
12	10
13	20
14	30
15	10
16	40
17	40
18	20
19	20
20	10
21	10
22	20
23	20
24	10
25	10
26	40
27	10
28	10
29	20
30	10
31	10
32	20
33	30
34	40
35	20
36	10
37	10
38	20
39	30
40	20
41	10
42	10
43	20
44	10
45	10
46	10
47	30
48	10
49	10
50	10
51	10
52	10
53	10
54	20
55	40
56	10
57	30
58	40
59	30
60	10
61	20
62	10
63	20
64	50
65	10
66	10
67	10
68	10
69	10
70	10
71	30
72	20
73	10
74	10
75	50
76	20
77	10
78	10
79	20
80	10
81	10
82	30
83	20
84	10
85	20
86	30
87	10
88	20
89	30
90	10
91	10
92	10
93	20
94	40
95	10
96	30
97	10
98	30
99	20
100	10
101	20
DEPOT_SECTION
1
-1
EOF
